c FILE /home/rafael/Documents/HappySet/MIHS/inputs/happygen/output/graph_scale_free_k10_p0.4_v100_20241127_083915.txt
c SOURCE This is a scale-free graph formed for the happy graph colouring problem.
c DESCRIPTION It was generated using the problem generator of Rhyd Lewis
c
c GRAPH STATS
c Seed                             = 1720792923
c Number of Nodes                  = 100
c Number of colours k              = 10
c Number of pre-assignments        = 40
c Number of links per new node     = 5
c Density                          = 0.0979798
c 
c The degrees of nodes 1 to 100, respectively, are as follows 
c [34, 34, 33, 29, 28, 26, 25, 25, 24, 23, 22, 19, 15, 13, 13, 13, 12, 12, 12, 12, 12, 12, 12, 12, 12, 11, 
c  10, 10, 9, 9, 9, 9, 9, 9, 8, 8, 8, 8, 8, 8, 8, 8, 8, 8, 7, 7, 7, 7, 7, 7, 7, 
c  7, 7, 7, 7, 6, 6, 6, 6, 6, 6, 6, 6, 6, 6, 6, 6, 6, 6, 6, 6, 6, 6, 6, 5, 5, 
c  5, 5, 5, 5, 5, 5, 5, 5, 5, 5, 5, 5, 5, 5, 5, 5, 5, 5, 5, 5, 5, 5, 5, 5] 
c  
p edge 100 485 10
e 1 3
e 1 4
e 1 5
e 1 6
e 1 7
e 1 8
e 1 9
e 1 11
e 1 12
e 1 14
e 1 15
e 1 19
e 1 21
e 1 24
e 1 25
e 1 27
e 1 33
e 1 38
e 1 39
e 1 40
e 1 44
e 1 47
e 1 52
e 1 57
e 1 58
e 1 64
e 1 75
e 1 79
e 1 85
e 1 86
e 1 92
e 1 94
e 1 96
e 1 97
e 2 3
e 2 4
e 2 5
e 2 7
e 2 8
e 2 10
e 2 11
e 2 12
e 2 15
e 2 16
e 2 17
e 2 18
e 2 21
e 2 25
e 2 26
e 2 28
e 2 29
e 2 32
e 2 36
e 2 38
e 2 44
e 2 45
e 2 49
e 2 54
e 2 59
e 2 60
e 2 61
e 2 64
e 2 66
e 2 73
e 2 75
e 2 80
e 2 92
e 2 94
e 3 5
e 3 6
e 3 7
e 3 8
e 3 9
e 3 12
e 3 14
e 3 18
e 3 21
e 3 23
e 3 27
e 3 30
e 3 35
e 3 39
e 3 41
e 3 42
e 3 45
e 3 47
e 3 51
e 3 52
e 3 54
e 3 56
e 3 63
e 3 77
e 3 80
e 3 82
e 3 84
e 3 87
e 3 92
e 3 98
e 3 99
e 4 6
e 4 7
e 4 9
e 4 13
e 4 16
e 4 17
e 4 20
e 4 27
e 4 31
e 4 33
e 4 35
e 4 36
e 4 38
e 4 41
e 4 44
e 4 45
e 4 46
e 4 49
e 4 50
e 4 59
e 4 60
e 4 64
e 4 65
e 4 70
e 4 86
e 4 88
e 4 96
e 5 6
e 5 7
e 5 8
e 5 9
e 5 12
e 5 22
e 5 24
e 5 26
e 5 27
e 5 29
e 5 31
e 5 32
e 5 40
e 5 41
e 5 45
e 5 46
e 5 53
e 5 55
e 5 70
e 5 78
e 5 80
e 5 81
e 5 85
e 5 87
e 5 91
e 6 7
e 6 8
e 6 9
e 6 10
e 6 11
e 6 12
e 6 16
e 6 17
e 6 20
e 6 22
e 6 26
e 6 29
e 6 30
e 6 48
e 6 59
e 6 71
e 6 73
e 6 83
e 6 89
e 6 91
e 6 98
e 6 100
e 7 8
e 7 9
e 7 15
e 7 19
e 7 20
e 7 21
e 7 28
e 7 30
e 7 35
e 7 47
e 7 53
e 7 54
e 7 64
e 7 70
e 7 72
e 7 87
e 7 88
e 7 93
e 7 96
e 8 12
e 8 14
e 8 18
e 8 21
e 8 23
e 8 27
e 8 30
e 8 38
e 8 39
e 8 40
e 8 46
e 8 47
e 8 66
e 8 71
e 8 73
e 8 75
e 8 77
e 8 78
e 8 83
e 9 10
e 9 11
e 9 14
e 9 16
e 9 17
e 9 19
e 9 23
e 9 25
e 9 28
e 9 30
e 9 31
e 9 35
e 9 39
e 9 43
e 9 56
e 9 60
e 9 67
e 9 95
e 10 11
e 10 13
e 10 18
e 10 19
e 10 22
e 10 26
e 10 28
e 10 31
e 10 35
e 10 42
e 10 43
e 10 49
e 10 60
e 10 63
e 10 72
e 10 75
e 10 78
e 10 81
e 10 90
e 10 97
e 11 12
e 11 15
e 11 17
e 11 18
e 11 36
e 11 37
e 11 40
e 11 44
e 11 46
e 11 48
e 11 49
e 11 56
e 11 63
e 11 72
e 11 78
e 11 83
e 11 91
e 12 19
e 12 24
e 12 35
e 12 45
e 12 51
e 12 59
e 12 65
e 12 77
e 12 82
e 12 88
e 12 93
e 12 97
e 13 18
e 13 22
e 13 30
e 13 33
e 13 51
e 13 56
e 13 57
e 13 68
e 13 76
e 13 79
e 13 89
e 13 93
e 13 98
e 14 31
e 14 34
e 14 36
e 14 37
e 14 43
e 14 51
e 14 56
e 14 78
e 14 100
e 15 21
e 15 22
e 15 23
e 15 51
e 15 59
e 15 67
e 15 74
e 15 80
e 15 89
e 16 30
e 16 32
e 16 43
e 16 66
e 16 70
e 16 74
e 16 77
e 16 81
e 16 91
e 17 26
e 17 31
e 17 53
e 17 58
e 17 67
e 17 71
e 17 94
e 18 29
e 18 50
e 18 66
e 18 75
e 18 79
e 18 84
e 19 28
e 19 37
e 19 39
e 19 41
e 19 57
e 19 62
e 19 77
e 20 26
e 20 29
e 20 37
e 20 38
e 20 58
e 20 76
e 20 91
e 20 97
e 20 100
e 21 25
e 21 33
e 21 37
e 21 68
e 21 83
e 21 99
e 22 25
e 22 27
e 22 42
e 22 48
e 22 62
e 22 84
e 22 100
e 23 26
e 23 33
e 23 54
e 23 55
e 23 57
e 23 63
e 23 69
e 23 85
e 24 28
e 24 45
e 24 46
e 24 48
e 24 52
e 24 57
e 24 58
e 24 81
e 24 93
e 25 53
e 25 64
e 25 69
e 25 85
e 25 93
e 25 96
e 25 99
e 26 29
e 26 50
e 26 71
e 26 95
e 27 42
e 27 48
e 27 72
e 27 87
e 28 49
e 28 62
e 28 81
e 28 90
e 29 58
e 29 62
e 29 92
e 30 36
e 30 86
e 31 42
e 31 61
e 31 68
e 32 38
e 32 41
e 32 45
e 32 50
e 32 69
e 32 88
e 33 61
e 33 65
e 33 67
e 33 82
e 34 37
e 34 44
e 34 57
e 34 65
e 34 74
e 34 86
e 34 90
e 34 95
e 35 55
e 35 76
e 36 44
e 36 55
e 36 76
e 37 43
e 37 79
e 38 50
e 38 52
e 39 47
e 39 61
e 39 62
e 40 46
e 40 70
e 40 76
e 40 94
e 41 52
e 41 60
e 41 87
e 42 61
e 42 69
e 42 89
e 43 71
e 43 85
e 43 99
e 44 54
e 44 73
e 46 90
e 47 65
e 47 66
e 48 53
e 48 63
e 49 68
e 49 83
e 50 80
e 50 88
e 51 68
e 51 69
e 52 82
e 52 84
e 53 72
e 53 73
e 54 95
e 54 97
e 55 69
e 55 74
e 55 94
e 56 82
e 58 65
e 59 79
e 60 95
e 61 67
e 62 90
e 63 74
e 64 92
e 66 86
e 67 84
e 68 89
e 70 98
e 71 96
e 72 98
e 73 100
e 74 99
n 1 9
n 16 3
n 18 2
n 22 4
n 29 2
n 30 3
n 31 3
n 34 8
n 37 8
n 41 1
n 46 8
n 47 9
n 49 4
n 50 2
n 51 6
n 53 2
n 54 10
n 55 6
n 59 7
n 60 1
n 61 3
n 64 9
n 67 3
n 69 6
n 71 7
n 76 8
n 77 3
n 78 9
n 80 2
n 81 3
n 82 5
n 85 9
n 87 1
n 88 2
n 89 4
n 90 8
n 91 3
n 98 7
n 99 6
n 100 4
